(set-logic ALL)
(set-option :produce-models true)
(declare-fun sym7 () String)
(assert (<= (str.len sym7) 2))
(declare-fun sym8 () String)
(assert (<= (str.len sym8) 2))
(define-fun Alphabet () RegLan 
	(re.* (re.union (str.to_re "A") (str.to_re "B") (str.to_re "C") (str.to_re "a") (str.to_re "b") (str.to_re "c") ))
)

(assert (str.in_re sym8 Alphabet))
(assert (str.in_re sym7 Alphabet))
(assert (str.contains sym7 "aB" ))
(assert (not (= sym7 sym8 )))
(assert (str.contains sym8 "aB" ))
(check-sat)
(get-model)
(exit)
